1139
0	56	130	175	264	340	409	498	559	603
55	130	175	226	340	382	427	456	573	603
0	173	238	382	432	508	616	674	706	758
88	204	285	392	494	559	674	770	850	900
0	118	172	338	491	537	670	704	758	766
7	159	447	540	634	757	885	937	1010	1054
32	104	125	198	244	338	409	498	573	691
275	280	536	610	716	824	913	957	1010	1042
164	226	503	610	616	851	857	960	1001	1054
340	417	634	716	726	755	784	835	900	937
